
se = 80; % nombre de sessions
gr = 40; % nombre de grups de treball
cl = 12; % nombre de slots
minPapersPerSlot = 3; % minim nombre d'articles per sessio i slot
maxSesionsPar = 20; % maxim nombre de sessions paraleles

npMax = [4, 4, 5, 6, 6, 5, 5, 3, 4, 3, 4, 5]; % nombre maxim de papers per slot

np = [14, 14, 12, 12, 10, 3, 12, 6, 15, 3, 3, 3, 11, 3, 3, 14, 12, 15, 18, 17, 10, 3, 13, 3, 14, 9, 7, 12, 5, 13, 15, 9, 3, 5, 3, 5, 13, 8, 19, 15, 13, 11, 16, 7, 14, 7, 12, 3, 3, 3, 12, 3, 8, 6, 5, 3, 10, 13, 16, 14, 15, 6, 8, 3, 9, 3, 7, 12, 12, 3, 14, 4, 6, 17, 6, 13, 11, 18, 8, 18]; % nombre de papers acceptats a cada sessio

WG = [ {1}, {2}, {3}, {}, {}, {4}, {5}, {}, {6}, {7}, {}, {8}, {9}, {10}, {11}, {12}, {13,14,15}, {16}, {17}, {}, {18,19,20}, {}, {}, {}, {21}, {}, {22}, {}, {}, {}, {23}, {24}, {25}, {}, {}, {}, {26}, {27}, {}, {}, {28,29,30}, {31,32}, {33,34}, {35}, {36}, {37,38}, {39}, {40,1,2}, {3,4}, {5}, {}, {6}, {7}, {8,9}, {10,11}, {12}, {}, {13}, {}, {14,15}, {16}, {17}, {}, {18,19}, {}, {20,21}, {}, {22}, {}, {23}, {24}, {25,26}, {}, {27}, {28}, {29}, {30,31,32}, {}, {}, {33} ]; % grups per sessio

